0 4619
2401 4537
4802 4467
7203 4405
9604 4354
12005 4322
14406 4291
16807 4261
19208 4231
21609 4210
24010 4185
26411 4172
28812 4159
31213 4144
33614 4125
36015 4124
38416 4112
40817 4106
43218 4103
45619 4089
48020 4073
50421 4067
52822 4061
55223 4051
57624 4049
60025 4047
64827 4041
67228 4039
74431 4037
76832 4025
79233 4022
81634 4020
84035 4014
206486 4013
208887 4011
905177 4009
917182 4008
919583 4007
921984 4002
924385 3998
931588 3995
933989 3988
